c 1 DellLaptops_Notebooks
c 2 ProductCategory
c 3 MiniNotebooks
c 4 InspironLaptops
c 5 StudioLaptops
c 6 XPSLaptops
c 7 Adamo
c 8 StudioXPSLaptops
c 9 OperatingSystem
c 10 VistawithDowngradetoXP
c 11 WindowsVista64bit
c 12 WindowsXPHome
c 13 UbuntuLinux
c 14 HardDrive
c 15 a500GB
c 16 a320GB
c 17 a250GB
c 18 a160GB
c 19 a128GBSolidState
c 20 a120GB
c 21 a80GB
c 22 OpticalDrive
c 23 CD_DVD_RW
c 24 DVD_ROMDriveandDVD__RW
c 25 DVD__RWandCD_RWCombo
c 26 BluRayDisc
c 27 LaptopWeight
c 28 UltraLight
c 29 Light
c 30 DesktopReplacement
c 31 Memory
c 32 Morethan4GB
c 33 a4GB
c 34 a3GB
c 35 a2GB
c 36 a1GB
c 37 Processor
c 38 IntelCore2Duo
c 39 IntelPentiumDualcore
c 40 IntelCeleron
c 41 IntelAtom
c 42 Price
c 43 Lessthan_400
c 44 _400__800
c 45 _800__1200
c 46 Morethan_1200
p cnf 46 244
1 0
-2 1 0
-1 2 0
-3 2 0
-4 2 0
-5 2 0
-6 2 0
-7 2 0
-8 2 0
-2 3 4 5 6 7 8 0
-4 -3 0
-5 -3 0
-6 -3 0
-7 -3 0
-8 -3 0
-5 -4 0
-6 -4 0
-7 -4 0
-8 -4 0
-6 -5 0
-7 -5 0
-8 -5 0
-7 -6 0
-8 -6 0
-8 -7 0
-9 1 0
-1 9 0
-10 9 0
-11 9 0
-12 9 0
-13 9 0
-9 10 11 12 13 0
-11 -10 0
-12 -10 0
-13 -10 0
-12 -11 0
-13 -11 0
-13 -12 0
-14 1 0
-1 14 0
-15 14 0
-16 14 0
-17 14 0
-18 14 0
-19 14 0
-20 14 0
-21 14 0
-14 15 16 17 18 19 20 21 0
-16 -15 0
-17 -15 0
-18 -15 0
-19 -15 0
-20 -15 0
-21 -15 0
-17 -16 0
-18 -16 0
-19 -16 0
-20 -16 0
-21 -16 0
-18 -17 0
-19 -17 0
-20 -17 0
-21 -17 0
-19 -18 0
-20 -18 0
-21 -18 0
-20 -19 0
-21 -19 0
-21 -20 0
-22 1 0
-23 22 0
-24 22 0
-25 22 0
-26 22 0
-22 23 24 25 26 0
-24 -23 0
-25 -23 0
-26 -23 0
-25 -24 0
-26 -24 0
-26 -25 0
-27 1 0
-1 27 0
-28 27 0
-29 27 0
-30 27 0
-27 28 29 30 0
-29 -28 0
-30 -28 0
-30 -29 0
-31 1 0
-1 31 0
-32 31 0
-33 31 0
-34 31 0
-35 31 0
-36 31 0
-31 32 33 34 35 36 0
-33 -32 0
-34 -32 0
-35 -32 0
-36 -32 0
-34 -33 0
-35 -33 0
-36 -33 0
-35 -34 0
-36 -34 0
-36 -35 0
-37 1 0
-1 37 0
-38 37 0
-39 37 0
-40 37 0
-41 37 0
-37 38 39 40 41 0
-39 -38 0
-40 -38 0
-41 -38 0
-40 -39 0
-41 -39 0
-41 -40 0
-42 1 0
-1 42 0
-43 42 0
-44 42 0
-45 42 0
-46 42 0
-42 43 44 45 46 0
-44 -43 0
-45 -43 0
-46 -43 0
-45 -44 0
-46 -44 0
-46 -45 0
-10 -3 0
-11 -3 0
-15 -3 0
-16 -3 0
-17 -3 0
-19 -3 0
-23 -3 0
-24 -3 0
-25 -3 0
-26 -3 0
-29 -3 0
-30 -3 0
-32 -3 0
-33 -3 0
-34 -3 0
-38 -3 0
-39 -3 0
-40 -3 0
-45 -3 0
-46 -3 0
-11 -4 0
-12 -4 0
-13 -4 0
-19 -4 0
-20 -4 0
-21 -4 0
-24 -4 0
-25 -4 0
-26 -4 0
-28 -4 0
-30 -4 0
-32 -4 0
-36 -4 0
-41 -4 0
-46 -4 0
-10 -5 0
-12 -5 0
-13 -5 0
-18 -5 0
-19 -5 0
-20 -5 0
-21 -5 0
-32 -5 0
-35 -5 0
-36 -5 0
-40 -5 0
-41 -5 0
-43 -5 0
-46 -5 0
-10 -6 0
-12 -6 0
-13 -6 0
-18 -6 0
-19 -6 0
-20 -6 0
-21 -6 0
-24 -6 0
-25 -6 0
-35 -6 0
-36 -6 0
-39 -6 0
-40 -6 0
-41 -6 0
-43 -6 0
-10 -7 0
-12 -7 0
-13 -7 0
-15 -7 0
-16 -7 0
-17 -7 0
-18 -7 0
-20 -7 0
-21 -7 0
-23 -7 0
-24 -7 0
-25 -7 0
-26 -7 0
-29 -7 0
-30 -7 0
-32 -7 0
-34 -7 0
-36 -7 0
-39 -7 0
-40 -7 0
-41 -7 0
-43 -7 0
-44 -7 0
-45 -7 0
-10 -8 0
-12 -8 0
-13 -8 0
-17 -8 0
-18 -8 0
-19 -8 0
-20 -8 0
-21 -8 0
-24 -8 0
-25 -8 0
-26 -8 0
-30 -8 0
-32 -8 0
-34 -8 0
-35 -8 0
-36 -8 0
-39 -8 0
-40 -8 0
-41 -8 0
-43 -8 0
-44 -8 0
-46 -8 0
